%%% Exp_DoseResponse conditions	%%%
%% Description: experiment data provided by Polina
%% 2021/Mar/08




%% Plate dimentions: (this is a 96-well plate)
num_rows = 16; %% height
num_cols = 24; %% width


horizontal_cell_lines = 1;
vertical_cell_lines = 1;

allow_empty_wells = true;
size_empty_edge = 1;

% New and used!
concentrations_on_different_rows = true;
concentrations_on_different_columns = true;

% New and unused! (Restriction: replicates_on_different_plates /\ replicates_on_same_plate == false)
replicates_on_different_plates = false;
replicates_on_same_plate = true;

%%% Compounds %%%
compounds = 78; %% number of drugs/compounds
compound_concentrations	 = [ 3 | i in 1..compounds ]; 
compound_replicates	 = [ 4 | i in 1..compounds ];
compound_names = ["[dmso]","(1)","[2]","[3]","[4]","[5]","(6)","[7]","[8]","[9]","[10]","[11]","[12]","[13]","(14)","(15)","(16)","(17)","(18)","(19)","(20)","(21)","(22)","(23)","(24)","(25)","(26)","(27)","(28)","(29)","(30)","(31)","(32)","(33)","(34)","(35)","(36)","(37)","(38)","(39)","(40)","(41)","(42)","(43)","(44)","(45)","(46)","(47)","(48)","(49)","(50)","(51)","(52)","(53)","(54)","(55)","(56)","(57)","(58)","(59)","(60)","(61)","(62)","(63)","(64)","(65)","(66)","(67)","(68)","(69)","(70)","(71)","(72)","(73)","(74)","(75)","(76)","(77)"];

compound_concentration_names = [|"1 ","3 ","10 "|"1 ","3 ","10 "|"1 ","3 ","10 "|"1 ","3 ","10 "|"1 ","3 ","10 "|"1 ","3 ","10 "|"1 ","3 ","10 "|"1 ","3 ","10 "|"1 ","3 ","10 "|"1 ","3 ","10 "|"1 ","3 ","10 "|"1 ","3 ","10 "|"1 ","3 ","10 "|"1 ","3 ","10 "|"1 ","3 ","10 "|"1 ","3 ","10 "|"1 ","3 ","10 "|"1 ","3 ","10 "|"1 ","3 ","10 "|"1 ","3 ","10 "|"1 ","3 ","10 "|"1 ","3 ","10 "|"1 ","3 ","10 "|"1 ","3 ","10 "|"1 ","3 ","10 "|"1 ","3 ","10 "|"1 ","3 ","10 "|"1 ","3 ","10 "|"1 ","3 ","10 "|"1 ","3 ","10 "|"1 ","3 ","10 "|"1 ","3 ","10 "|"1 ","3 ","10 "|"1 ","3 ","10 "|"1 ","3 ","10 "|"1 ","3 ","10 "|"1 ","3 ","10 "|"1 ","3 ","10 "|"1 ","3 ","10 "|"1 ","3 ","10 "|"1 ","3 ","10 "|"1 ","3 ","10 "|"1 ","3 ","10 "|"1 ","3 ","10 "|"1 ","3 ","10 "|"1 ","3 ","10 "|"1 ","3 ","10 "|"1 ","3 ","10 "|"1 ","3 ","10 "|"1 ","3 ","10 "|"1 ","3 ","10 "|"1 ","3 ","10 "|"1 ","3 ","10 "|"1 ","3 ","10 "|"1 ","3 ","10 "|"1 ","3 ","10 "|"1 ","3 ","10 "|"1 ","3 ","10 "|"1 ","3 ","10 "|"1 ","3 ","10 "|"1 ","3 ","10 "|"1 ","3 ","10 "|"1 ","3 ","10 "|"1 ","3 ","10 "|"1 ","3 ","10 "|"1 ","3 ","10 "|"1 ","3 ","10 "|"1 ","3 ","10 "|"1 ","3 ","10 "|"1 ","3 ","10 "|"1 ","3 ","10 "|"1 ","3 ","10 "|"1 ","3 ","10 "|"1 ","3 ","10 "|"1 ","3 ","10 "|"1 ","3 ","10 "|"1 ","3 ","10 "|"1 ","3 ","10 "|];

compound_concentration_indicators = ["" | i in 1..max(compound_concentrations)]; 


%%% Combinations %%%
combinations = 	0;
combination_names = [];
combination_concentration_names = [];
combination_concentrations = 0;


%%% Controls %%%
num_controls = 9;
control_replicates = [4 | i in 1..num_controls];
control_concentrations = [2 | i in 1..num_controls];
control_names = ["[M]","[mc]","[etop]","[noco]","[bc]","[fen]","[fdh]","[t]","[sorbitol]"];
control_concentration_names =  [|"X ","Z "|"X ","Z "|"X ","Z "|"X ","Z "|"X ","Z "|"X ","Z "|"X ","Z "|"X ","Z "|"X ","Z "|];    
  
